%%% static parameters %%%
timespan = 1;
Fact = [2];
Distr1 = [5];
Distr2 = [10];
Clients_N = [120];
Demand_W = [15];
Lt0 = [4];
Lt1 = [4];
SS_ = [0.85];
DS_D = [5];
K = [200];
MA = [500];
%%% dynamic parameters %%%
lost_ratio_sales_ret_th = 0.6592296353479304;
lost_ratio_sales_ret_w = 47;
lost_ratio_sales_dis_th = 0.926863088814736;
lost_ratio_sales_dis_w = 5;
lost_ratio_sales_fac_th = 0.8873604639678805;
lost_ratio_sales_fac_w = 100;
stock_customer_MA_mean_relative_th = 0.48923624946583766;
stock_customer_MA_mean_relative_w = 8;
stock_distributor_MA_mean_relative_th = 0.07395649568365414;
stock_distributor_MA_mean_relative_w = 97;
stock_retailer_MA_mean_relative_th = 0.791530940361575;
stock_retailer_MA_mean_relative_w = 46;
stock_factory_MA_mean_relative_th = 0.320227690005192;
stock_factory_MA_mean_relative_w = 95;
